500
1000
699
697
697
695
694
693
692
691
690
686
686
682
680
679
678
676
676
676
673
672
670
669
668
667
667
664
662
661
659
657
651
649
647
644
639
634
633
632
630
629
623
618
612
608
607
606
604
603
602
601
601
600
599
595
594
594
594
592
592
591
590
590
590
590
590
589
589
586
585
585
581
581
580
579
578
576
576
575
575
574
573
573
572
572
572
571
570
570
569
569
568
566
564
563
562
562
558
558
557
554
553
551
550
549
546
545
542
542
538
538
536
533
533
533
533
531
529
528
526
525
525
519
519
519
518
515
512
511
508
506
505
503
503
497
494
493
492
492
491
490
490
489
488
486
484
484
482
482
482
482
482
481
481
478
478
477
477
476
475
473
472
471
470
470
468
468
468
467
466
464
464
463
461
460
460
459
457
456
453
453
452
452
452
452
452
451
451
450
448
447
446
445
444
444
444
443
443
443
440
440
434
434
433
431
430
426
426
425
424
424
421
420
417
416
416
416
415
414
412
411
411
411
410
405
403
402
402
401
400
397
397
396
393
392
392
390
390
389
389
388
387
387
386
384
377
376
376
374
373
371
369
368
366
366
366
366
366
365
359
359
357
354
354
353
352
352
349
345
345
344
343
343
342
340
340
340
339
338
338
337
337
337
337
335
331
331
327
327
326
326
326
325
325
324
324
323
322
320
320
318
317
315
315
312
311
310
307
307
303
302
300
298
297
295
295
291
290
290
289
287
285
283
282
281
281
280
280
280
279
278
276
276
276
275
275
274
274
272
270
266
266
265
262
261
258
257
256
255
255
254
253
253
253
252
250
250
249
246
246
243
241
238
237
236
236
235
234
234
234
233
232
231
231
230
229
229
228
227
226
226
225
224
222
217
216
214
213
212
210
209
208
205
204
203
202
200
199
199
198
197
196
196
195
194
194
193
192
191
190
189
188
187
186
185
185
183
183
182
182
181
179
178
177
177
176
176
176
175
175
174
172
172
170
169
169
169
168
167
166
165
163
162
162
160
159
158
158
156
155
154
153
153
152
152
152
151
150
150
150
149
149
148
146
145
144
143
142
142
141
141
140
138
138
136
130
129
128
128
128
127
126
126
126
123
122
121
120
119
119
117
116
112
109
109
109
104
104
101
101
100
